50

99 29 314
99 16 308
95 3 288
94 11 436
92 24 413
91 9 450
90 28 337
87 9 321
86 12 422
84 19 411
83 41 263
82 24 276
82 8 403
81 34 354
81 38 267
81 18 356
80 38 354
80 29 383
78 8 381
78 33 390
78 21 294
77 5 304
77 10 428
74 26 443
72 29 393
71 3 428
69 17 290
68 18 423
66 3 388
66 1 354
64 30 430
63 15 421
62 16 428
62 20 358
61 16 372
60 16 310
57 4 209
55 10 430
52 13 446
52 4 320
46 2 221
46 6 252
45 3 314
45 16 402
42 17 200
39 13 122
39 3 278
38 2 371
35 4 384
32 2 317
